<number of tasks>
20

<cycle time>
1000

<order strength>
0,263


<task times>
1 156
2 84
3 180
4 204
5 79
6 54
7 279
8 128
9 127
10 111
11 290
12 239
13 179
14 161
15 46
16 124
17 159
18 107
19 64
20 193

<precedence relations>
1,3
1,4
2,5
2,6
3,7
4,8
5,9
5,10
7,12
8,14
9,11
9,13
10,15
11,16
12,18
13,17
14,18
15,19
15,20

<end>
